NAME : 10_3_3_3_(39).dat
COMMENT : Henke, Speranza, Wäscher, 2015
TYPE : MCVRP
DIMENSION : 11
EDGE_WEIGHT_TYPE : DISTANCE_MATRIX
CAPACITY : 1000
VEHICLES : 3
PRODUCT TYPES : 3
COMPARTMENTS : 3
NODE_COORD_SECTION
1 50 50
2 8.14 77.4
3 20.38 69.54
4 15.7 33.23
5 42.38 25.76
6 8.29 37.38
7 47.26 57.55
8 59.64 87.64
9 9.91 56.31
10 19.4 22.94
11 69.26 61.84
DEMAND_SECTION
1 0 0 0
2 85 69 39
3 19 65 20
4 116 27 63
5 155 16 54
6 64 55 57
7 90 25 7
8 57 35 59
9 2 78 27
10 144 55 10
11 135 93 10
DEPOT_SECTION
1
EOF